2025-03-15 07:23:14,408 - INFO - Set parameter WLSAccessID
2025-03-15 07:23:14,409 - INFO - Set parameter WLSSecret
2025-03-15 07:23:14,409 - INFO - Set parameter LicenseID to value 2628134
2025-03-15 07:23:14,627 - INFO - Academic license 2628134 - for non-commercial use only - registered to bs___@uw.edu
2025-03-15 07:23:14,627 - INFO - Initialization complete
2025-03-15 07:23:15,381 - INFO - Variables created successfully
2025-03-15 07:23:20,764 - INFO - Constraints added successfully
2025-03-15 07:23:20,766 - INFO - Weights - Missed requests: 1000, Capacity violations: 800
2025-03-15 07:23:20,768 - INFO - Objective function with soft constraints set successfully
2025-03-15 07:23:20,990 - INFO - ================================================================================
2025-03-15 07:23:20,991 - INFO - SYSTEM CONFIGURATION
2025-03-15 07:23:20,991 - INFO - System has 373.7 GB of RAM available
2025-03-15 07:23:20,991 - INFO - Setting Gurobi memory limit to 355 GB (95% of available RAM)
2025-03-15 07:23:20,991 - INFO - Set parameter MemLimit to value 363520
2025-03-15 07:23:20,991 - INFO - Set parameter Presolve to value 1
2025-03-15 07:23:20,991 - INFO - Set parameter Method to value 1
2025-03-15 07:23:20,991 - INFO - Set parameter MIPFocus to value 1
2025-03-15 07:23:20,991 - INFO - Set parameter SolutionLimit to value 10000000
2025-03-15 07:23:20,991 - INFO - Set parameter TimeLimit to value 25200
2025-03-15 07:23:20,991 - INFO - Set parameter NodefileStart to value 0.95
2025-03-15 07:23:20,991 - INFO - Set parameter NodefileDir to value "/tmp/gurobi_nodefiles"
2025-03-15 07:23:20,991 - INFO - Node file directory: /tmp/gurobi_nodefiles
2025-03-15 07:23:20,991 - INFO - Will switch to disk storage when memory reaches 95.0% of allocated RAM
2025-03-15 07:23:20,991 - INFO - Set parameter OutputFlag to value 1
2025-03-15 07:23:20,991 - INFO - Set parameter DisplayInterval to value 5
2025-03-15 07:23:20,999 - INFO - Set parameter Threads to value 32
2025-03-15 07:23:21,000 - INFO - Using 32 threads out of 48 available cores
2025-03-15 07:23:21,000 - INFO - Generating initial solution using advanced greedy algorithm...
2025-03-15 07:23:21,579 - INFO - Greedy algorithm generated initial values for: 1688 x vars, 127 z vars, 1688 y vars
2025-03-15 07:23:21,587 - INFO - Initial solution: 1688/400 students assigned, 127/127 sections used
2025-03-15 07:23:21,588 - INFO - Set parameter MIPFocus to value 1
2025-03-15 07:23:21,588 - INFO - ================================================================================
2025-03-15 07:23:21,588 - INFO - STARTING OPTIMIZATION
2025-03-15 07:23:21,588 - INFO - Maximum possible satisfied requests: 2400
2025-03-15 07:23:21,588 - INFO - ================================================================================
2025-03-15 07:23:21,696 - INFO - Gurobi Optimizer version 12.0.1 build v12.0.1rc0 (linux64 - "Debian GNU/Linux 12 (bookworm)")
2025-03-15 07:23:21,696 - INFO - 
2025-03-15 07:23:21,696 - INFO - CPU model: Intel(R) Xeon(R) Platinum 8259CL CPU @ 2.50GHz, instruction set [SSE2|AVX|AVX2|AVX512]
2025-03-15 07:23:21,696 - INFO - Thread count: 24 physical cores, 48 logical processors, using up to 32 threads
2025-03-15 07:23:21,696 - INFO - 
2025-03-15 07:23:21,696 - INFO - Non-default parameters:
2025-03-15 07:23:21,696 - INFO - SolutionLimit  10000000
2025-03-15 07:23:21,696 - INFO - TimeLimit  25200
2025-03-15 07:23:21,696 - INFO - MemLimit  363520
2025-03-15 07:23:21,696 - INFO - Method  1
2025-03-15 07:23:21,696 - INFO - MIPFocus  1
2025-03-15 07:23:21,696 - INFO - NodefileStart  0.95
2025-03-15 07:23:21,696 - INFO - Presolve  1
2025-03-15 07:23:21,696 - INFO - Threads  32
2025-03-15 07:23:21,696 - INFO - 
2025-03-15 07:23:21,698 - INFO - Academic license 2628134 - for non-commercial use only - registered to bs___@uw.edu
2025-03-15 07:23:21,698 - INFO - Optimize a model with 362196 rows, 137340 columns and 983688 nonzeros
2025-03-15 07:23:21,710 - INFO - Model fingerprint: 0x556216c6
2025-03-15 07:23:21,710 - INFO - Variable types: 0 continuous, 137340 integer (137213 binary)
2025-03-15 07:23:21,713 - INFO - Coefficient statistics:
2025-03-15 07:23:21,713 - INFO -   Matrix range     [1e+00, 1e+00]
2025-03-15 07:23:21,713 - INFO -   Objective range  [8e+02, 1e+03]
2025-03-15 07:23:21,713 - INFO -   Bounds range     [1e+00, 1e+00]
2025-03-15 07:23:21,713 - INFO -   RHS range        [1e+00, 2e+01]
2025-03-15 07:23:21,713 - INFO - 
2025-03-15 07:23:21,715 - INFO - Warning: Completing partial solution with 133837 unfixed non-continuous variables out of 137340
2025-03-15 07:23:22,000 - INFO - User MIP start produced solution with objective 228400 (0.30s)
2025-03-15 07:23:22,017 - INFO - Loaded user MIP start with objective 228400
2025-03-15 07:23:22,017 - INFO - 
2025-03-15 07:23:25,888 - INFO - Presolve removed 402 rows and 1968 columns
2025-03-15 07:23:25,888 - INFO - Presolve time: 3.87s
2025-03-15 07:23:25,892 - INFO - Presolved: 361794 rows, 135372 columns, 981455 nonzeros
2025-03-15 07:23:26,145 - INFO - Variable types: 0 continuous, 135372 integer (135245 binary)
2025-03-15 07:23:26,759 - INFO - 
2025-03-15 07:23:26,759 - INFO - Root simplex log...
2025-03-15 07:23:26,759 - INFO - 
2025-03-15 07:23:26,759 - INFO - Iteration    Objective       Primal Inf.    Dual Inf.      Time
2025-03-15 07:23:26,759 - INFO -     5541    2.2480000e+05   8.214770e+03   0.000000e+00      5s
2025-03-15 07:23:30,257 - INFO -    14597    2.2480000e+05   0.000000e+00   0.000000e+00      9s
2025-03-15 07:23:30,257 - INFO - 
2025-03-15 07:23:30,257 - INFO - Root relaxation: objective 2.248000e+05, 14597 iterations, 4.09 seconds (3.80 work units)
2025-03-15 07:23:30,496 - INFO - 
2025-03-15 07:23:30,496 - INFO -     Nodes    |    Current Node    |     Objective Bounds      |     Work
2025-03-15 07:23:30,496 - INFO -  Expl Unexpl |  Obj  Depth IntInf | Incumbent    BestBd   Gap | It/Node Time
2025-03-15 07:23:30,496 - INFO - 
2025-03-15 07:23:30,496 - INFO - H    0     0                    224800.00000 224800.000  0.00%     -    8s
2025-03-15 07:23:30,497 - INFO -      0     0 224800.000    0 5088 224800.000 224800.000  0.00%     -    8s
2025-03-15 07:23:30,510 - INFO - 
2025-03-15 07:23:30,511 - INFO - Explored 1 nodes (14597 simplex iterations) in 8.81 seconds (7.18 work units)
2025-03-15 07:23:30,511 - INFO - Thread count was 32 (of 48 available processors)
2025-03-15 07:23:30,511 - INFO - 
2025-03-15 07:23:30,511 - INFO - Solution count 2: 224800 228400 
2025-03-15 07:23:30,511 - INFO - 
2025-03-15 07:23:30,511 - INFO - Optimal solution found (tolerance 1.00e-04)
2025-03-15 07:23:30,515 - INFO - Best objective 2.248000000000e+05, best bound 2.248000000000e+05, gap 0.0000%
2025-03-15 07:23:30,534 - INFO - 
2025-03-15 07:23:30,534 - INFO - User-callback calls 467, time in user-callback 0.00 sec
2025-03-15 07:23:30,534 - INFO - ================================================================================
2025-03-15 07:23:30,534 - INFO - OPTIMIZATION RESULTS
2025-03-15 07:23:30,538 - INFO - STATUS: Found optimal solution!
2025-03-15 07:23:30,538 - INFO - SATISFIED REQUESTS: 2188 out of 2400
2025-03-15 07:23:30,538 - INFO - SATISFACTION RATE: 91.17%
2025-03-15 07:23:30,538 - INFO - CAPACITY VIOLATIONS: 4 sections over capacity
2025-03-15 07:23:30,538 - INFO - TOTAL OVERAGES: 16 students over capacity
2025-03-15 07:23:30,539 - INFO - OBJECTIVE VALUE: 224800.0
2025-03-15 07:23:30,539 - INFO -   - Missed requests penalty: 212000
2025-03-15 07:23:30,539 - INFO -   - Capacity violations penalty: 16.0
2025-03-15 07:23:30,539 - INFO - RUNTIME: 8.84 seconds
2025-03-15 07:23:30,539 - INFO - NODES EXPLORED: 1.0
2025-03-15 07:23:30,539 - INFO - MIP GAP: 0.00%
2025-03-15 07:23:30,539 - INFO - PEAK MEMORY USAGE: Not available
2025-03-15 07:23:30,539 - INFO - ================================================================================
2025-03-15 07:23:30,539 - INFO - Saving solution files...
2025-03-15 07:23:30,542 - INFO - Created output/Master_Schedule.csv with 127 entries
2025-03-15 07:23:30,570 - INFO - Created output/Student_Assignments.csv with 2188 entries
2025-03-15 07:23:30,608 - INFO - Created output/Teacher_Schedule.csv with 127 entries
2025-03-15 07:23:30,613 - INFO - Created output/Constraint_Violations.csv
2025-03-15 07:23:30,613 - INFO - Successfully created 4 output files:
2025-03-15 07:23:30,613 - INFO -   - output/Master_Schedule.csv (1034 bytes)
2025-03-15 07:23:30,614 - INFO -   - output/Student_Assignments.csv (24090 bytes)
2025-03-15 07:23:30,614 - INFO -   - output/Teacher_Schedule.csv (1680 bytes)
2025-03-15 07:23:30,614 - INFO -   - output/Constraint_Violations.csv (221 bytes)
2025-03-15 07:23:30,614 - INFO - Solution saved successfully
2025-03-15 07:23:30,614 - INFO - Solution files saved successfully.
2025-03-15 07:23:30,614 - INFO - Warning: environment still referenced so free is deferred (Continue to use WLS)
2025-03-15 07:23:57,073 - INFO - Set parameter WLSAccessID
2025-03-15 07:23:57,073 - INFO - Set parameter WLSSecret
2025-03-15 07:23:57,073 - INFO - Set parameter LicenseID to value 2628134
2025-03-15 07:23:57,302 - INFO - Academic license 2628134 - for non-commercial use only - registered to bs___@uw.edu
2025-03-15 07:23:57,302 - INFO - Initialization complete
2025-03-15 07:23:58,047 - INFO - Variables created successfully
2025-03-15 07:24:03,310 - INFO - Constraints added successfully
2025-03-15 07:24:03,312 - INFO - Weights - Missed requests: 1000, Capacity violations: 800
2025-03-15 07:24:03,314 - INFO - Objective function with soft constraints set successfully
2025-03-15 07:24:03,453 - INFO - ================================================================================
2025-03-15 07:24:03,453 - INFO - SYSTEM CONFIGURATION
2025-03-15 07:24:03,453 - INFO - System has 373.7 GB of RAM available
2025-03-15 07:24:03,453 - INFO - Setting Gurobi memory limit to 355 GB (95% of available RAM)
2025-03-15 07:24:03,453 - INFO - Set parameter MemLimit to value 363520
2025-03-15 07:24:03,453 - INFO - Set parameter Presolve to value 1
2025-03-15 07:24:03,453 - INFO - Set parameter Method to value 1
2025-03-15 07:24:03,453 - INFO - Set parameter MIPFocus to value 1
2025-03-15 07:24:03,453 - INFO - Set parameter SolutionLimit to value 10000000
2025-03-15 07:24:03,453 - INFO - Set parameter TimeLimit to value 25200
2025-03-15 07:24:03,453 - INFO - Set parameter NodefileStart to value 0.95
2025-03-15 07:24:03,453 - INFO - Set parameter NodefileDir to value "/tmp/gurobi_nodefiles"
2025-03-15 07:24:03,454 - INFO - Node file directory: /tmp/gurobi_nodefiles
2025-03-15 07:24:03,454 - INFO - Will switch to disk storage when memory reaches 95.0% of allocated RAM
2025-03-15 07:24:03,454 - INFO - Set parameter OutputFlag to value 1
2025-03-15 07:24:03,454 - INFO - Set parameter DisplayInterval to value 5
2025-03-15 07:24:03,462 - INFO - Set parameter Threads to value 32
2025-03-15 07:24:03,462 - INFO - Using 32 threads out of 48 available cores
2025-03-15 07:24:03,462 - INFO - Generating initial solution using advanced greedy algorithm...
2025-03-15 07:24:04,032 - INFO - Greedy algorithm generated initial values for: 1746 x vars, 124 z vars, 1746 y vars
2025-03-15 07:24:04,040 - INFO - Initial solution: 1746/400 students assigned, 124/124 sections used
2025-03-15 07:24:04,040 - INFO - Set parameter MIPFocus to value 1
2025-03-15 07:24:04,040 - INFO - ================================================================================
2025-03-15 07:24:04,040 - INFO - STARTING OPTIMIZATION
2025-03-15 07:24:04,040 - INFO - Maximum possible satisfied requests: 2400
2025-03-15 07:24:04,040 - INFO - ================================================================================
2025-03-15 07:24:04,144 - INFO - Gurobi Optimizer version 12.0.1 build v12.0.1rc0 (linux64 - "Debian GNU/Linux 12 (bookworm)")
2025-03-15 07:24:04,144 - INFO - 
2025-03-15 07:24:04,145 - INFO - CPU model: Intel(R) Xeon(R) Platinum 8259CL CPU @ 2.50GHz, instruction set [SSE2|AVX|AVX2|AVX512]
2025-03-15 07:24:04,145 - INFO - Thread count: 24 physical cores, 48 logical processors, using up to 32 threads
2025-03-15 07:24:04,145 - INFO - 
2025-03-15 07:24:04,145 - INFO - Non-default parameters:
2025-03-15 07:24:04,145 - INFO - SolutionLimit  10000000
2025-03-15 07:24:04,145 - INFO - TimeLimit  25200
2025-03-15 07:24:04,145 - INFO - MemLimit  363520
2025-03-15 07:24:04,145 - INFO - Method  1
2025-03-15 07:24:04,145 - INFO - MIPFocus  1
2025-03-15 07:24:04,145 - INFO - NodefileStart  0.95
2025-03-15 07:24:04,145 - INFO - Presolve  1
2025-03-15 07:24:04,145 - INFO - Threads  32
2025-03-15 07:24:04,145 - INFO - 
2025-03-15 07:24:04,147 - INFO - Academic license 2628134 - for non-commercial use only - registered to bs___@uw.edu
2025-03-15 07:24:04,147 - INFO - Optimize a model with 354984 rows, 134613 columns and 963834 nonzeros
2025-03-15 07:24:04,159 - INFO - Model fingerprint: 0xb7d84e7f
2025-03-15 07:24:04,159 - INFO - Variable types: 0 continuous, 134613 integer (134489 binary)
2025-03-15 07:24:04,162 - INFO - Coefficient statistics:
2025-03-15 07:24:04,162 - INFO -   Matrix range     [1e+00, 1e+00]
2025-03-15 07:24:04,162 - INFO -   Objective range  [8e+02, 1e+03]
2025-03-15 07:24:04,162 - INFO -   Bounds range     [1e+00, 1e+00]
2025-03-15 07:24:04,162 - INFO -   RHS range        [1e+00, 2e+01]
2025-03-15 07:24:04,162 - INFO - 
2025-03-15 07:24:04,164 - INFO - Warning: Completing partial solution with 130997 unfixed non-continuous variables out of 134613
2025-03-15 07:24:04,439 - INFO - User MIP start produced solution with objective 229000 (0.29s)
2025-03-15 07:24:04,465 - INFO - Loaded user MIP start with objective 229000
2025-03-15 07:24:04,465 - INFO - 
2025-03-15 07:24:08,252 - INFO - Presolve removed 396 rows and 1968 columns
2025-03-15 07:24:08,252 - INFO - Presolve time: 3.79s
2025-03-15 07:24:08,257 - INFO - Presolved: 354588 rows, 132645 columns, 961612 nonzeros
2025-03-15 07:24:08,506 - INFO - Variable types: 0 continuous, 132645 integer (132521 binary)
2025-03-15 07:24:09,210 - INFO - 
2025-03-15 07:24:09,210 - INFO - Root simplex log...
2025-03-15 07:24:09,210 - INFO - 
2025-03-15 07:24:09,210 - INFO - Iteration    Objective       Primal Inf.    Dual Inf.      Time
2025-03-15 07:24:09,210 - INFO -     5641    2.2480000e+05   6.301872e+03   0.000000e+00      5s
2025-03-15 07:24:13,849 - INFO -    14211    2.2480000e+05   0.000000e+00   0.000000e+00     10s
2025-03-15 07:24:13,849 - INFO - 
2025-03-15 07:24:13,849 - INFO - Root relaxation: objective 2.248000e+05, 14211 iterations, 5.32 seconds (5.08 work units)
2025-03-15 07:24:14,095 - INFO - 
2025-03-15 07:24:14,095 - INFO -     Nodes    |    Current Node    |     Objective Bounds      |     Work
2025-03-15 07:24:14,095 - INFO -  Expl Unexpl |  Obj  Depth IntInf | Incumbent    BestBd   Gap | It/Node Time
2025-03-15 07:24:14,095 - INFO - 
2025-03-15 07:24:14,095 - INFO - H    0     0                    224800.00000 224800.000  0.00%     -    9s
2025-03-15 07:24:14,096 - INFO -      0     0 224800.000    0 5203 224800.000 224800.000  0.00%     -    9s
2025-03-15 07:24:14,109 - INFO - 
2025-03-15 07:24:14,110 - INFO - Explored 1 nodes (14211 simplex iterations) in 9.96 seconds (8.41 work units)
2025-03-15 07:24:14,110 - INFO - Thread count was 32 (of 48 available processors)
2025-03-15 07:24:14,110 - INFO - 
2025-03-15 07:24:14,110 - INFO - Solution count 2: 224800 229000 
2025-03-15 07:24:14,110 - INFO - 
2025-03-15 07:24:14,110 - INFO - Optimal solution found (tolerance 1.00e-04)
2025-03-15 07:24:14,114 - INFO - Best objective 2.248000000000e+05, best bound 2.248000000000e+05, gap 0.0000%
2025-03-15 07:24:14,133 - INFO - 
2025-03-15 07:24:14,133 - INFO - User-callback calls 472, time in user-callback 0.00 sec
2025-03-15 07:24:14,133 - INFO - ================================================================================
2025-03-15 07:24:14,133 - INFO - OPTIMIZATION RESULTS
2025-03-15 07:24:14,137 - INFO - STATUS: Found optimal solution!
2025-03-15 07:24:14,137 - INFO - SATISFIED REQUESTS: 2188 out of 2400
2025-03-15 07:24:14,137 - INFO - SATISFACTION RATE: 91.17%
2025-03-15 07:24:14,138 - INFO - CAPACITY VIOLATIONS: 4 sections over capacity
2025-03-15 07:24:14,138 - INFO - TOTAL OVERAGES: 16 students over capacity
2025-03-15 07:24:14,138 - INFO - OBJECTIVE VALUE: 224800.0
2025-03-15 07:24:14,138 - INFO -   - Missed requests penalty: 212000
2025-03-15 07:24:14,138 - INFO -   - Capacity violations penalty: 16.0
2025-03-15 07:24:14,138 - INFO - RUNTIME: 9.99 seconds
2025-03-15 07:24:14,138 - INFO - NODES EXPLORED: 1.0
2025-03-15 07:24:14,138 - INFO - MIP GAP: 0.00%
2025-03-15 07:24:14,138 - INFO - PEAK MEMORY USAGE: Not available
2025-03-15 07:24:14,138 - INFO - ================================================================================
2025-03-15 07:24:14,138 - INFO - Saving solution files...
2025-03-15 07:24:14,142 - INFO - Created output/Master_Schedule.csv with 124 entries
2025-03-15 07:24:14,170 - INFO - Created output/Student_Assignments.csv with 2188 entries
2025-03-15 07:24:14,207 - INFO - Created output/Teacher_Schedule.csv with 124 entries
2025-03-15 07:24:14,213 - INFO - Created output/Constraint_Violations.csv
2025-03-15 07:24:14,213 - INFO - Successfully created 4 output files:
2025-03-15 07:24:14,213 - INFO -   - output/Master_Schedule.csv (1010 bytes)
2025-03-15 07:24:14,213 - INFO -   - output/Student_Assignments.csv (24090 bytes)
2025-03-15 07:24:14,213 - INFO -   - output/Teacher_Schedule.csv (1641 bytes)
2025-03-15 07:24:14,213 - INFO -   - output/Constraint_Violations.csv (221 bytes)
2025-03-15 07:24:14,213 - INFO - Solution saved successfully
2025-03-15 07:24:14,213 - INFO - Solution files saved successfully.
2025-03-15 07:24:14,214 - INFO - Warning: environment still referenced so free is deferred (Continue to use WLS)
2025-03-15 07:24:16,008 - INFO - Set parameter WLSAccessID
2025-03-15 07:24:16,008 - INFO - Set parameter WLSSecret
2025-03-15 07:24:16,008 - INFO - Set parameter LicenseID to value 2628134
2025-03-15 07:24:16,010 - INFO - Academic license 2628134 - for non-commercial use only - registered to bs___@uw.edu
2025-03-15 07:24:16,010 - INFO - Initialization complete
2025-03-15 07:24:16,742 - INFO - Variables created successfully
2025-03-15 07:24:21,927 - INFO - Constraints added successfully
2025-03-15 07:24:21,928 - INFO - Weights - Missed requests: 1000, Capacity violations: 800
2025-03-15 07:24:21,931 - INFO - Objective function with soft constraints set successfully
2025-03-15 07:24:22,071 - INFO - ================================================================================
2025-03-15 07:24:22,071 - INFO - SYSTEM CONFIGURATION
2025-03-15 07:24:22,071 - INFO - System has 373.7 GB of RAM available
2025-03-15 07:24:22,071 - INFO - Setting Gurobi memory limit to 355 GB (95% of available RAM)
2025-03-15 07:24:22,071 - INFO - Set parameter MemLimit to value 363520
2025-03-15 07:24:22,071 - INFO - Set parameter Presolve to value 1
2025-03-15 07:24:22,071 - INFO - Set parameter Method to value 1
2025-03-15 07:24:22,071 - INFO - Set parameter MIPFocus to value 1
2025-03-15 07:24:22,071 - INFO - Set parameter SolutionLimit to value 10000000
2025-03-15 07:24:22,071 - INFO - Set parameter TimeLimit to value 25200
2025-03-15 07:24:22,071 - INFO - Set parameter NodefileStart to value 0.95
2025-03-15 07:24:22,071 - INFO - Set parameter NodefileDir to value "/tmp/gurobi_nodefiles"
2025-03-15 07:24:22,071 - INFO - Node file directory: /tmp/gurobi_nodefiles
2025-03-15 07:24:22,071 - INFO - Will switch to disk storage when memory reaches 95.0% of allocated RAM
2025-03-15 07:24:22,071 - INFO - Set parameter OutputFlag to value 1
2025-03-15 07:24:22,072 - INFO - Set parameter DisplayInterval to value 5
2025-03-15 07:24:22,073 - INFO - Set parameter Threads to value 32
2025-03-15 07:24:22,073 - INFO - Using 32 threads out of 48 available cores
2025-03-15 07:24:22,073 - INFO - Generating initial solution using advanced greedy algorithm...
2025-03-15 07:24:22,629 - INFO - Greedy algorithm generated initial values for: 1772 x vars, 119 z vars, 1772 y vars
2025-03-15 07:24:22,638 - INFO - Initial solution: 1772/400 students assigned, 119/119 sections used
2025-03-15 07:24:22,638 - INFO - Set parameter MIPFocus to value 1
2025-03-15 07:24:22,638 - INFO - ================================================================================
2025-03-15 07:24:22,638 - INFO - STARTING OPTIMIZATION
2025-03-15 07:24:22,638 - INFO - Maximum possible satisfied requests: 2400
2025-03-15 07:24:22,639 - INFO - ================================================================================
2025-03-15 07:24:22,751 - INFO - Gurobi Optimizer version 12.0.1 build v12.0.1rc0 (linux64 - "Debian GNU/Linux 12 (bookworm)")
2025-03-15 07:24:22,751 - INFO - 
2025-03-15 07:24:22,751 - INFO - CPU model: Intel(R) Xeon(R) Platinum 8259CL CPU @ 2.50GHz, instruction set [SSE2|AVX|AVX2|AVX512]
2025-03-15 07:24:22,751 - INFO - Thread count: 24 physical cores, 48 logical processors, using up to 32 threads
2025-03-15 07:24:22,751 - INFO - 
2025-03-15 07:24:22,751 - INFO - Non-default parameters:
2025-03-15 07:24:22,751 - INFO - SolutionLimit  10000000
2025-03-15 07:24:22,751 - INFO - TimeLimit  25200
2025-03-15 07:24:22,751 - INFO - MemLimit  363520
2025-03-15 07:24:22,751 - INFO - Method  1
2025-03-15 07:24:22,751 - INFO - MIPFocus  1
2025-03-15 07:24:22,751 - INFO - NodefileStart  0.95
2025-03-15 07:24:22,751 - INFO - Presolve  1
2025-03-15 07:24:22,751 - INFO - Threads  32
2025-03-15 07:24:22,751 - INFO - 
2025-03-15 07:24:22,753 - INFO - Academic license 2628134 - for non-commercial use only - registered to bs___@uw.edu
2025-03-15 07:24:22,753 - INFO - Optimize a model with 343588 rows, 130302 columns and 932460 nonzeros
2025-03-15 07:24:22,765 - INFO - Model fingerprint: 0x26e6edea
2025-03-15 07:24:22,765 - INFO - Variable types: 0 continuous, 130302 integer (130183 binary)
2025-03-15 07:24:22,767 - INFO - Coefficient statistics:
2025-03-15 07:24:22,767 - INFO -   Matrix range     [1e+00, 1e+00]
2025-03-15 07:24:22,767 - INFO -   Objective range  [8e+02, 1e+03]
2025-03-15 07:24:22,767 - INFO -   Bounds range     [1e+00, 1e+00]
2025-03-15 07:24:22,767 - INFO -   RHS range        [1e+00, 2e+01]
2025-03-15 07:24:22,767 - INFO - 
2025-03-15 07:24:22,770 - INFO - Warning: Completing partial solution with 126639 unfixed non-continuous variables out of 130302
2025-03-15 07:24:23,023 - INFO - User MIP start produced solution with objective 237200 (0.27s)
2025-03-15 07:24:23,042 - INFO - Loaded user MIP start with objective 237200
2025-03-15 07:24:23,042 - INFO - 
2025-03-15 07:24:26,662 - INFO - Presolve removed 394 rows and 1968 columns
2025-03-15 07:24:26,662 - INFO - Presolve time: 3.62s
2025-03-15 07:24:26,667 - INFO - Presolved: 343194 rows, 128334 columns, 930235 nonzeros
2025-03-15 07:24:26,910 - INFO - Variable types: 0 continuous, 128334 integer (128215 binary)
2025-03-15 07:24:27,831 - INFO - 
2025-03-15 07:24:27,831 - INFO - Root simplex log...
2025-03-15 07:24:27,832 - INFO - 
2025-03-15 07:24:27,832 - INFO - Iteration    Objective       Primal Inf.    Dual Inf.      Time
2025-03-15 07:24:27,832 - INFO -     7225    2.2480000e+05   4.360983e+03   0.000000e+00      5s
2025-03-15 07:24:32,812 - INFO -    17587    2.2480000e+05   0.000000e+00   0.000000e+00     10s
2025-03-15 07:24:32,855 - INFO - 
2025-03-15 07:24:32,855 - INFO - Root relaxation: objective 2.248000e+05, 17587 iterations, 5.92 seconds (5.46 work units)
2025-03-15 07:24:41,497 - INFO - Total elapsed time = 18.74s (DegenMoves)
2025-03-15 07:24:44,375 - INFO - 
2025-03-15 07:24:44,375 - INFO -     Nodes    |    Current Node    |     Objective Bounds      |     Work
2025-03-15 07:24:44,375 - INFO -  Expl Unexpl |  Obj  Depth IntInf | Incumbent    BestBd   Gap | It/Node Time
2025-03-15 07:24:44,375 - INFO - 
2025-03-15 07:24:44,375 - INFO -      0     0 224800.000    0  109 237200.000 224800.000  5.23%     -   21s
2025-03-15 07:24:46,553 - INFO - H    0     0                    236400.00000 224800.000  4.91%     -   23s
2025-03-15 07:24:49,557 - INFO - H    0     0                    235000.00000 224800.000  4.34%     -   26s
2025-03-15 07:24:49,577 - INFO - H    0     0                    234800.00000 224800.000  4.26%     -   26s
2025-03-15 07:24:49,598 - INFO - H    0     0                    233600.00000 224800.000  3.77%     -   26s
2025-03-15 07:24:49,624 - INFO - H    0     0                    233200.00000 224800.000  3.60%     -   26s
2025-03-15 07:24:49,645 - INFO - H    0     0                    232400.00000 224800.000  3.27%     -   26s
2025-03-15 07:24:49,947 - INFO - H    0     0                    231600.00000 224800.000  2.94%     -   27s
2025-03-15 07:24:52,457 - INFO - H    0     0                    231400.00000 224800.000  2.85%     -   29s
2025-03-15 07:24:52,496 - INFO - H    0     0                    229400.00000 224800.000  2.01%     -   29s
2025-03-15 07:24:56,920 - INFO - *    0     0               0    224800.00000 224800.000  0.00%     -   34s
2025-03-15 07:24:56,921 - INFO - 
2025-03-15 07:24:56,921 - INFO - Cutting planes:
2025-03-15 07:24:56,921 - INFO -   Gomory: 1
2025-03-15 07:24:56,921 - INFO -   Implied bound: 20
2025-03-15 07:24:56,921 - INFO -   Zero half: 2
2025-03-15 07:24:56,921 - INFO -   RLT: 108
2025-03-15 07:24:56,921 - INFO -   BQP: 20
2025-03-15 07:24:56,942 - INFO - 
2025-03-15 07:24:56,942 - INFO - Explored 1 nodes (51491 simplex iterations) in 34.19 seconds (32.67 work units)
2025-03-15 07:24:56,942 - INFO - Thread count was 32 (of 48 available processors)
2025-03-15 07:24:56,942 - INFO - 
2025-03-15 07:24:56,942 - INFO - Solution count 10: 224800 229400 231400 ... 236400
2025-03-15 07:24:56,942 - INFO - 
2025-03-15 07:24:56,942 - INFO - Optimal solution found (tolerance 1.00e-04)
2025-03-15 07:24:56,946 - INFO - Best objective 2.248000000000e+05, best bound 2.248000000000e+05, gap 0.0000%
2025-03-15 07:24:56,962 - INFO - 
2025-03-15 07:24:56,962 - INFO - User-callback calls 2674, time in user-callback 0.01 sec
2025-03-15 07:24:56,962 - INFO - ================================================================================
2025-03-15 07:24:56,962 - INFO - OPTIMIZATION RESULTS
2025-03-15 07:24:56,966 - INFO - STATUS: Found optimal solution!
2025-03-15 07:24:56,966 - INFO - SATISFIED REQUESTS: 2188 out of 2400
2025-03-15 07:24:56,966 - INFO - SATISFACTION RATE: 91.17%
2025-03-15 07:24:56,966 - INFO - CAPACITY VIOLATIONS: 4 sections over capacity
2025-03-15 07:24:56,966 - INFO - TOTAL OVERAGES: 16 students over capacity
2025-03-15 07:24:56,967 - INFO - OBJECTIVE VALUE: 224800.0
2025-03-15 07:24:56,967 - INFO -   - Missed requests penalty: 212000
2025-03-15 07:24:56,967 - INFO -   - Capacity violations penalty: 16.0
2025-03-15 07:24:56,967 - INFO - RUNTIME: 34.21 seconds
2025-03-15 07:24:56,967 - INFO - NODES EXPLORED: 1.0
2025-03-15 07:24:56,967 - INFO - MIP GAP: 0.00%
2025-03-15 07:24:56,967 - INFO - PEAK MEMORY USAGE: Not available
2025-03-15 07:24:56,967 - INFO - ================================================================================
2025-03-15 07:24:56,967 - INFO - Saving solution files...
2025-03-15 07:24:56,971 - INFO - Created output/Master_Schedule.csv with 119 entries
2025-03-15 07:24:56,998 - INFO - Created output/Student_Assignments.csv with 2188 entries
2025-03-15 07:24:57,033 - INFO - Created output/Teacher_Schedule.csv with 119 entries
2025-03-15 07:24:57,039 - INFO - Created output/Constraint_Violations.csv
2025-03-15 07:24:57,039 - INFO - Successfully created 4 output files:
2025-03-15 07:24:57,039 - INFO -   - output/Master_Schedule.csv (970 bytes)
2025-03-15 07:24:57,039 - INFO -   - output/Student_Assignments.csv (24090 bytes)
2025-03-15 07:24:57,039 - INFO -   - output/Teacher_Schedule.csv (1576 bytes)
2025-03-15 07:24:57,039 - INFO -   - output/Constraint_Violations.csv (221 bytes)
2025-03-15 07:24:57,039 - INFO - Solution saved successfully
2025-03-15 07:24:57,040 - INFO - Solution files saved successfully.
2025-03-15 07:24:57,040 - INFO - Warning: environment still referenced so free is deferred (Continue to use WLS)
